p cnf 109 373
-1 -2 -3 0
1 2 -3 0
-1 2 3 0
1 -2 3 0
4 -1 -5 0
-4 1 -5 0
4 1 5 0
-4 -1 5 0
6 -3 0
6 -5 0
3 5 -6 0
7 -5 -8 0
-7 5 -8 0
7 5 8 0
-7 -5 8 0
-9 8 0
-9 7 0
-8 -7 9 0
-10 -6 0
-10 -9 0
6 9 10 0
-11 1 0
-11 -1 0
-13 12 0
-13 2 0
-12 -2 13 0
13 14 -15 0
-13 -14 -15 0
13 -14 15 0
-13 14 15 0
16 15 0
16 6 0
-15 -6 -16 0
18 -16 0
18 17 0
16 -17 -18 0
19 -15 0
19 -17 0
15 17 -19 0
-20 18 0
-20 19 0
-18 -19 20 0
-21 11 0
-21 20 0
-11 -20 21 0
22 10 0
22 21 0
-10 -21 -22 0
-19 -15 -23 0
19 15 -23 0
-19 15 23 0
19 -15 23 0
24 17 0
24 -23 0
-17 23 -24 0
-25 22 0
-25 24 0
-22 -24 25 0
-4 -26 -27 0
4 26 -27 0
-4 26 27 0
4 -26 27 0
-29 -28 0
-29 -2 0
28 2 29 0
-30 27 0
-30 29 0
-27 -29 30 0
32 30 0
32 31 0
-30 -31 -32 0
33 14 0
33 7 0
-14 -7 -33 0
35 28 0
35 34 0
-28 -34 -35 0
36 33 0
36 -35 0
-33 35 -36 0
-36 -28 -37 0
36 28 -37 0
-36 28 37 0
36 -28 37 0
-4 14 -38 0
4 -14 -38 0
-4 -14 38 0
4 14 38 0
39 38 0
39 4 0
-38 -4 -39 0
37 39 -40 0
-37 -39 -40 0
37 -39 40 0
-37 39 40 0
-34 -2 -41 0
34 2 -41 0
-34 2 41 0
34 -2 41 0
-42 7 0
-42 -41 0
-7 41 42 0
43 -5 0
43 -19 0
5 19 -43 0
-44 -42 0
-44 43 0
42 -43 44 0
45 -40 0
45 44 0
40 -44 -45 0
32 -45 -46 0
-32 45 -46 0
32 45 46 0
-32 -45 46 0
48 47 0
48 28 0
-47 -28 -48 0
49 -48 0
49 35 0
48 -35 -49 0
50 -13 0
50 -8 0
13 8 -50 0
-51 50 0
-51 30 0
-50 -30 51 0
52 5 0
52 -51 0
-5 51 -52 0
-53 18 0
-53 52 0
-18 -52 53 0
-49 53 -54 0
49 -53 -54 0
-49 -53 54 0
49 53 54 0
-46 54 -55 0
46 -54 -55 0
-46 -54 55 0
46 54 55 0
-56 47 0
-56 50 0
-47 -50 56 0
-57 -2 0
-57 2 0
58 -27 0
58 57 0
27 -57 -58 0
59 33 0
59 28 0
-33 -28 -59 0
60 -58 0
60 -59 0
58 59 -60 0
4 15 -61 0
-4 -15 -61 0
4 -15 61 0
-4 15 61 0
-62 61 0
-62 13 0
-61 -13 62 0
63 50 0
63 -62 0
-50 62 -63 0
64 -29 0
64 33 0
29 -33 -64 0
-65 63 0
-65 64 0
-63 -64 65 0
-60 65 -66 0
60 -65 -66 0
-60 -65 66 0
60 65 66 0
-67 -56 0
-67 -66 0
56 66 67 0
-68 55 0
-68 67 0
-55 -67 68 0
-69 25 0
-69 -68 0
-25 68 69 0
70 -11 0
70 42 0
11 -42 -70 0
71 34 0
71 51 0
-34 -51 -71 0
-72 -16 0
-72 -71 0
16 71 72 0
74 -73 0
74 -50 0
73 50 -74 0
-74 -61 -75 0
74 61 -75 0
-74 61 75 0
74 -61 75 0
-72 75 -76 0
72 -75 -76 0
-72 -75 76 0
72 75 76 0
77 -74 0
77 74 0
-78 -76 0
-78 -77 0
76 77 78 0
79 -70 0
79 78 0
70 -78 -79 0
-80 -19 0
-80 27 0
19 -27 80 0
81 12 0
81 -33 0
-12 33 -81 0
-82 62 0
-82 -7 0
-62 7 82 0
83 -82 0
83 26 0
82 -26 -83 0
84 81 0
84 -83 0
-81 83 -84 0
-48 -41 -85 0
48 41 -85 0
-48 41 85 0
48 -41 85 0
86 -64 -87 0
-86 64 -87 0
86 64 87 0
-86 -64 87 0
-88 -85 0
-88 87 0
85 -87 88 0
-84 -88 -89 0
84 88 -89 0
-84 88 89 0
84 -88 89 0
-90 -26 0
-90 71 0
26 -71 90 0
-89 90 -91 0
89 -90 -91 0
-89 -90 91 0
89 90 91 0
80 91 -92 0
-80 -91 -92 0
80 -91 92 0
-80 91 92 0
93 79 0
93 92 0
-79 -92 -93 0
94 69 0
94 -93 0
-69 93 -94 0
-13 -57 -95 0
13 57 -95 0
-13 57 95 0
13 -57 95 0
-3 -34 -96 0
3 34 -96 0
-3 34 96 0
3 -34 96 0
97 95 0
97 96 0
-95 -96 -97 0
-28 -12 -98 0
28 12 -98 0
-28 12 98 0
28 -12 98 0
-99 -23 0
-99 -98 0
23 98 99 0
100 -99 0
100 -36 0
99 36 -100 0
-101 -97 0
-101 -100 0
97 100 101 0
102 -52 0
102 -30 0
52 30 -102 0
12 33 -103 0
-12 -33 -103 0
12 -33 103 0
-12 33 103 0
103 -8 -104 0
-103 8 -104 0
103 8 104 0
-103 -8 104 0
-105 102 0
-105 104 0
-102 -104 105 0
-106 61 0
-106 31 0
-61 -31 106 0
-105 -106 -107 0
105 106 -107 0
-105 106 107 0
105 -106 107 0
-108 -101 0
-108 -107 0
101 107 108 0
109 -94 0
109 -108 0
94 108 -109 0
-85 42 67 3 0
106 -83 100 0
81 -10 -98 0
-26 86 0
82 94 -101 0
-68 -109 54 -4 0
28 -39 14 58 0
-23 106 82 0
29 -24 108 -26 0
-96 -75 0
-14 -60 -101 -4 0
64 107 -40 33 68 -71 0
28 109 74 -52 0
10 62 48 0
38 29 32 14 -61 66 0
-18 20 -58 100 101 -103 0
7 19 -40 24 70 16 0
-49 -25 -94 0
-52 -41 25 0
93 -81 -89 -13 43 -61 0
-106 -38 94 60 0
-105 -69 -91 52 -72 0
92 -73 -50 34 -76 4 0
81 65 95 15 16 -3 0
-52 -58 89 -105 -40 69 0
-77 -19 -32 79 0
79 -54 106 93 0
18 72 -79 -92 83 0
4 -48 -72 0
74 81 0
56 -31 93 0
19 35 0
-22 -10 0
44 92 15 0
25 89 0
-83 -37 -9 -26 32 0
-27 -72 0
-87 21 61 -26 0
-55 -28 33 46 -102 0
67 71 -25 -106 0
-79 -102 -1 -27 0
-42 -3 9 0
-11 7 -105 0
-57 20 28 -26 0
-60 84 -12 72 106 105 0
106 -80 0
-4 25 -107 8 34 0
17 -84 0
76 -40 0
85 -20 0
7 -17 57 0
99 25 -55 -7 35 -22 0
18 43 -57 26 -61 0
75 -30 92 18 -8 0
76 -73 83 -28 0
10 108 -95 -4 9 0
71 -105 47 -59 0
-91 80 102 -14 -67 -96 0
-22 -89 0
-46 -77 -91 103 87 0
-108 -39 0
-31 14 -44 -19 -62 -84 0
109 0
